####################################################################### 
# 
# This file contains crystal structure data downloaded from the 
# Cambridge Structural Database (CSD) hosted by the Cambridge 
# Crystallographic Data Centre (CCDC).
# 
# Full information about CCDC data access policies and citation 
# guidelines are available at http://www.ccdc.cam.ac.uk/access/V1 
# 
# Audit and citation data items may have been added by the CCDC. 
# Please retain this information to preserve the provenance of 
# this file and to allow appropriate attribution of the data. 
# 
#######################################################################

data_CAG-ZIF-4
_audit_block_doi                 10.5517/ccn6zqj
_database_code_depnum_ccdc_archive 'CCDC 602538'
loop_
_citation_id
_citation_doi
_citation_year
1 10.1073/pnas.0602439103 2006
_audit_update_record             
;
2006-03-22 deposited with the CCDC.	2023-07-04 downloaded from the CCDC.
;

_audit_creation_method           SHELXL-97
_chemical_name_systematic        
;
CAG- ZIF-4
;
_chemical_name_common            ZIF-4
_chemical_melting_point          ?
_chemical_formula_moiety         'C15 H19 N9 O Zn2'
_chemical_formula_sum            'C15 H19 N9 O Zn2'
_chemical_formula_weight         472.13

loop_
_atom_type_symbol
_atom_type_description
_atom_type_scat_dispersion_real
_atom_type_scat_dispersion_imag
_atom_type_scat_source
C C 0.0033 0.0016 'International Tables Vol C Tables 4.2.6.8 and 6.1.1.4'
H H 0.0000 0.0000 'International Tables Vol C Tables 4.2.6.8 and 6.1.1.4'
N N 0.0061 0.0033 'International Tables Vol C Tables 4.2.6.8 and 6.1.1.4'
O O 0.0106 0.0060 'International Tables Vol C Tables 4.2.6.8 and 6.1.1.4'
Zn Zn 0.2839 1.4301 'International Tables Vol C Tables 4.2.6.8 and 6.1.1.4'

_symmetry_cell_setting           Orthorhombic
_symmetry_space_group_name_H-M   Pbca

loop_
_symmetry_equiv_pos_as_xyz
'x, y, z'
'-x+1/2, -y, z+1/2'
'-x, y+1/2, -z+1/2'
'x+1/2, -y+1/2, -z'
'-x, -y, -z'
'x-1/2, y, -z-1/2'
'x, -y-1/2, z-1/2'
'-x-1/2, y-1/2, z'

_cell_length_a                   15.3950(17)
_cell_length_b                   15.3073(17)
_cell_length_c                   18.426(2)
_cell_angle_alpha                90.00
_cell_angle_beta                 90.00
_cell_angle_gamma                90.00
_cell_volume                     4342.2(8)
_cell_formula_units_Z            8
_cell_measurement_temperature    233(2)
_cell_measurement_reflns_used    999
_cell_measurement_theta_min      ?
_cell_measurement_theta_max      ?

_exptl_crystal_description       block
_exptl_crystal_colour            colourless
_exptl_crystal_size_max          0.20
_exptl_crystal_size_mid          0.15
_exptl_crystal_size_min          0.15
_exptl_crystal_density_meas      ?
_exptl_crystal_density_diffrn    1.444
_exptl_crystal_density_method    'not measured'
_exptl_crystal_F_000             1920
_exptl_absorpt_coefficient_mu    2.232
_exptl_absorpt_correction_type   multi-scan
_exptl_absorpt_correction_T_min  0.6638
_exptl_absorpt_correction_T_max  0.7307
_exptl_absorpt_process_details   'Blessing, Acta Cryst. (1995) A51 33-58'

_exptl_special_details           
;

As an open structure, there are poorly ordered solvent molecules
contained within the cavities of the structure. Only one dimethylformamide
molecule could be resolved from from difference F-maps whose poor ordering
is reflected in its large thermal parameters. All other residual
electron density in cavities amounted to peaks < 1eA^-3^ and were not
modeled. Lower data collection temperatures did not ameloriate the
ordering of these molecules and hence their refinement.
;

_diffrn_ambient_temperature      233(2)
_diffrn_radiation_wavelength     0.71073
_diffrn_radiation_type           MoK\a
_diffrn_radiation_source         'fine-focus sealed tube'
_diffrn_radiation_monochromator  graphite
_diffrn_measurement_device_type  ?
_diffrn_measurement_method       ?
_diffrn_detector_area_resol_mean ?
_diffrn_standards_number         ?
_diffrn_standards_interval_count ?
_diffrn_standards_interval_time  ?
_diffrn_standards_decay_%        ?
_diffrn_reflns_number            45791
_diffrn_reflns_av_R_equivalents  0.1045
_diffrn_reflns_av_sigmaI/netI    0.0532
_diffrn_reflns_limit_h_min       -21
_diffrn_reflns_limit_h_max       21
_diffrn_reflns_limit_k_min       -20
_diffrn_reflns_limit_k_max       20
_diffrn_reflns_limit_l_min       -25
_diffrn_reflns_limit_l_max       25
_diffrn_reflns_theta_min         2.18
_diffrn_reflns_theta_max         29.63
_reflns_number_total             6074
_reflns_number_gt                3960
_reflns_threshold_expression     >2sigma(I)

_computing_data_collection       BrukerSMART
_computing_cell_refinement       BrukerCELLNOW
_computing_data_reduction        BrukerSAINT
_computing_structure_solution    'SHELXS-97 (Sheldrick, 1990)'
_computing_structure_refinement  'SHELXL-97 (Sheldrick, 1997)'
_computing_molecular_graphics    Diamond
_computing_publication_material  WinGX

_refine_special_details          
;
Refinement of F^2^ against ALL reflections. The weighted R-factor wR and
goodness of fit S are based on F^2^, conventional R-factors R are based
on F, with F set to zero for negative F^2^. The threshold expression of
F^2^ > 2sigma(F^2^) is used only for calculating R-factors(gt) etc. and is
not relevant to the choice of reflections for refinement. R-factors based
on F^2^ are statistically about twice as large as those based on F, and R-
factors based on ALL data will be even larger.

C4 and C9 were the two components of a disordered carbon atom.
The sof of C4A was refined as a free variable to converge at 0.44.
C4 and C9 were two independent carbon atoms in an imidazole ring.

;

_refine_ls_structure_factor_coef Fsqd
_refine_ls_matrix_type           full
_refine_ls_weighting_scheme      calc
_refine_ls_weighting_details     
'calc w=1/[\s^2^(Fo^2^)+(0.0531P)^2^+0.0000P] where P=(Fo^2^+2Fc^2^)/3'
_atom_sites_solution_primary     direct
_atom_sites_solution_secondary   difmap
_atom_sites_solution_hydrogens   geom
_refine_ls_hydrogen_treatment    constr
_refine_ls_extinction_method     none
_refine_ls_extinction_coef       ?
_refine_ls_number_reflns         6074
_refine_ls_number_parameters     243
_refine_ls_number_restraints     0
_refine_ls_R_factor_all          0.0682
_refine_ls_R_factor_gt           0.0406
_refine_ls_wR_factor_ref         0.1109
_refine_ls_wR_factor_gt          0.1041
_refine_ls_goodness_of_fit_ref   1.020
_refine_ls_restrained_S_all      1.020
_refine_ls_shift/su_max          0.002
_refine_ls_shift/su_mean         0.000

loop_
_atom_site_label
_atom_site_type_symbol
_atom_site_fract_x
_atom_site_fract_y
_atom_site_fract_z
_atom_site_U_iso_or_equiv
_atom_site_adp_type
_atom_site_occupancy
_atom_site_symmetry_multiplicity
_atom_site_calc_flag
_atom_site_refinement_flags
_atom_site_disorder_assembly
_atom_site_disorder_group
C1 C 0.85769(17) 0.73390(18) 0.86019(14) 0.0459(6) Uani 1 1 d . . .
H1 H 0.8219 0.7801 0.8448 0.055 Uiso 1 1 calc R . .
C2 C 0.8991(2) 0.6132(2) 0.90571(19) 0.0658(9) Uani 1 1 d . . .
H2 H 0.8993 0.5580 0.9280 0.079 Uiso 1 1 calc R . .
C3 C 0.9708(2) 0.6582(2) 0.8837(2) 0.0638(9) Uani 1 1 d . . .
H3 H 1.0287 0.6395 0.8881 0.077 Uiso 1 1 calc R . .
C5 C 0.6911(2) 0.5137(2) 0.7830(2) 0.0840(12) Uani 1 1 d . . .
H5 H 0.7391 0.5374 0.7583 0.101 Uiso 1 1 calc R . .
C6 C 0.6198(2) 0.8224(2) 0.89068(18) 0.0675(9) Uani 1 1 d . . .
H6 H 0.6372 0.8454 0.9357 0.081 Uiso 1 1 calc R . .
C7 C 0.59815(18) 0.73721(19) 0.80184(14) 0.0492(7) Uani 1 1 d . . .
H7 H 0.5977 0.6870 0.7724 0.059 Uiso 1 1 calc R . .
C8 C 1.10590(17) 0.84601(17) 0.95360(14) 0.0467(6) Uani 1 1 d . . .
H8 H 1.0640 0.8108 0.9764 0.056 Uiso 1 1 calc R . .
C10 C 1.0760(2) 0.8659(2) 0.66094(18) 0.0678(9) Uani 1 1 d . . .
H10 H 1.0578 0.9245 0.6579 0.081 Uiso 1 1 calc R . .
C11 C 0.90531(17) 0.98711(18) 0.86161(14) 0.0474(6) Uani 1 1 d . . .
H11 H 0.9381 0.9900 0.9046 0.057 Uiso 1 1 calc R . .
C12 C 0.8628(3) 0.9499(2) 0.75710(19) 0.0785(11) Uani 1 1 d . . .
H12 H 0.8579 0.9223 0.7117 0.094 Uiso 1 1 calc R . .
C4A C -0.2725(5) 0.5951(6) 1.0703(4) 0.050(2) Uiso 0.441(12) 1 d P . 2
H4A H -0.2150 0.5750 1.0661 0.060 Uiso 0.441(12) 1 calc PR . 2
C9B C 0.1830(5) 0.8976(6) 0.8675(4) 0.048(2) Uiso 0.441(12) 1 d P . 2
H9B H 0.2038 0.9106 0.8208 0.058 Uiso 0.441(12) 1 calc PR . 2
C9A C 0.1651(4) 0.9323(5) 0.8788(3) 0.0543(17) Uiso 0.559(12) 1 d P . 3
H9A H 0.1764 0.9662 0.8373 0.065 Uiso 0.559(12) 1 calc PR . 3
C4B C -0.2920(4) 0.5619(5) 1.0570(3) 0.0559(18) Uiso 0.559(12) 1 d P . 3
H4B H -0.2468 0.5228 1.0460 0.067 Uiso 0.559(12) 1 calc PR . 3
C1S C 0.2528(6) 0.3362(5) 0.4095(8) 0.304(9) Uani 1 1 d . . .
H1S H 0.2767 0.2966 0.3760 0.365 Uiso 1 1 calc . . .
C2S C 0.1571(12) 0.2932(9) 0.3358(6) 0.368(9) Uani 1 1 d . . .
H2S1 H 0.0950 0.2830 0.3344 0.442 Uiso 1 1 calc . . .
H2S2 H 0.1876 0.2393 0.3247 0.442 Uiso 1 1 calc . . .
H2S3 H 0.1724 0.3374 0.3002 0.442 Uiso 1 1 calc . . .
C3S C 0.1240(9) 0.3195(15) 0.4567(7) 0.541(17) Uani 1 1 d . . .
H3S1 H 0.0655 0.3127 0.4379 0.649 Uiso 1 1 calc . . .
H3S2 H 0.1281 0.3739 0.4835 0.649 Uiso 1 1 calc . . .
H3S3 H 0.1375 0.2710 0.4886 0.649 Uiso 1 1 calc . . .
N1 N 0.82702(15) 0.66148(15) 0.89010(13) 0.0483(6) Uani 1 1 d . . .
N2 N 0.94376(14) 0.73514(14) 0.85396(13) 0.0475(5) Uani 1 1 d . . .
N3 N 0.67417(15) 0.62256(15) 1.01153(12) 0.0481(5) Uani 1 1 d . . .
N4 N 0.66370(14) 0.53685(15) 0.85008(13) 0.0489(5) Uani 1 1 d . . .
N5 N 0.63490(14) 0.73928(14) 0.86682(12) 0.0459(5) Uani 1 1 d . . .
N6 N 1.10088(14) 0.86758(15) 0.88468(12) 0.0479(5) Uani 1 1 d . . .
N7 N 1.06206(15) 0.81197(15) 0.71808(12) 0.0484(5) Uani 1 1 d . . .
N8 N 0.92445(15) 0.93287(14) 0.80772(12) 0.0476(5) Uani 1 1 d . . .
N1S N 0.1799(3) 0.3208(3) 0.4021(2) 0.1129(14) Uani 1 1 d . . .
O1S O 0.3116(2) 0.3661(3) 0.4296(3) 0.1428(15) Uani 1 1 d . . .
Zn1 Zn 0.70215(2) 0.63949(2) 0.908302(17) 0.04360(11) Uani 1 1 d . . .
Zn2 Zn 1.009635(19) 0.83602(2) 0.813743(17) 0.04400(11) Uani 1 1 d . . .

loop_
_atom_site_aniso_label
_atom_site_aniso_U_11
_atom_site_aniso_U_22
_atom_site_aniso_U_33
_atom_site_aniso_U_23
_atom_site_aniso_U_13
_atom_site_aniso_U_12
C1 0.0368(13) 0.0518(16) 0.0491(16) 0.0025(12) 0.0011(12) 0.0008(12)
C2 0.0512(18) 0.0498(17) 0.096(3) 0.0115(17) 0.0093(17) 0.0048(14)
C3 0.0412(16) 0.061(2) 0.090(3) 0.0050(17) 0.0054(16) 0.0090(14)
C5 0.089(3) 0.076(2) 0.087(2) -0.034(2) 0.053(2) -0.036(2)
C6 0.088(2) 0.0552(18) 0.0592(19) -0.0123(15) -0.0304(18) 0.0070(17)
C7 0.0504(16) 0.0544(17) 0.0428(15) -0.0062(12) -0.0042(12) 0.0025(13)
C8 0.0375(13) 0.0564(17) 0.0462(15) 0.0058(12) 0.0045(11) -0.0077(12)
C10 0.088(3) 0.0502(17) 0.066(2) 0.0089(16) 0.0250(19) 0.0067(17)
C11 0.0439(15) 0.0578(17) 0.0405(14) -0.0019(12) -0.0056(12) 0.0036(12)
C12 0.098(3) 0.072(2) 0.066(2) -0.0257(18) -0.037(2) 0.026(2)
C1S 0.128(6) 0.132(6) 0.65(3) 0.017(8) -0.212(11) 0.002(5)
C2S 0.60(3) 0.301(12) 0.200(10) -0.075(10) -0.141(13) -0.126(16)
C3S 0.267(14) 1.06(4) 0.291(14) 0.40(2) 0.184(13) 0.33(2)
N1 0.0361(11) 0.0518(14) 0.0571(14) -0.0010(11) 0.0045(10) 0.0002(10)
N2 0.0350(11) 0.0515(14) 0.0561(14) 0.0007(11) 0.0049(10) -0.0009(10)
N3 0.0434(12) 0.0586(14) 0.0423(12) 0.0094(11) 0.0030(10) 0.0057(10)
N4 0.0462(13) 0.0490(13) 0.0515(14) -0.0050(11) 0.0087(11) -0.0061(10)
N5 0.0447(12) 0.0522(14) 0.0409(12) -0.0011(10) -0.0065(10) 0.0006(10)
N6 0.0387(12) 0.0612(14) 0.0438(12) 0.0076(10) 0.0010(10) -0.0098(10)
N7 0.0491(13) 0.0515(14) 0.0446(13) -0.0010(11) 0.0088(11) 0.0043(11)
N8 0.0472(13) 0.0505(13) 0.0451(12) -0.0037(10) -0.0024(10) 0.0060(10)
N1S 0.075(3) 0.177(4) 0.086(3) -0.005(3) -0.004(2) 0.001(3)
O1S 0.076(2) 0.141(3) 0.211(4) 0.039(3) 0.004(3) 0.017(2)
Zn1 0.03683(17) 0.04859(19) 0.04538(19) 0.00120(13) 0.00150(13) -0.00251(13)
Zn2 0.03754(17) 0.0531(2) 0.04133(18) -0.00305(14) 0.00438(13) 0.00089(13)

_geom_special_details            
;
All esds (except the esd in the dihedral angle between two l.s. planes)
are estimated using the full covariance matrix. The cell esds are taken
into account individually in the estimation of esds in distances, angles
and torsion angles; correlations between esds in cell parameters are only
used when they are defined by crystal symmetry. An approximate (isotropic)
treatment of cell esds is used for estimating esds involving l.s. planes.
;

loop_
_geom_bond_atom_site_label_1
_geom_bond_atom_site_label_2
_geom_bond_distance
_geom_bond_site_symmetry_2
_geom_bond_publ_flag
C1 N1 1.325(3) . ?
C1 N2 1.330(3) . ?
C1 H1 0.9400 . ?
C2 C3 1.363(4) . ?
C2 N1 1.364(4) . ?
C2 H2 0.9400 . ?
C3 N2 1.363(4) . ?
C3 H3 0.9400 . ?
C5 N4 1.354(4) . ?
C5 C12 1.367(4) 8_755 ?
C5 H5 0.9400 . ?
C6 C10 1.343(4) 6_557 ?
C6 N5 1.367(4) . ?
C6 H6 0.9400 . ?
C7 N7 1.324(3) 6_557 ?
C7 N5 1.325(3) . ?
C7 H7 0.9400 . ?
C8 N6 1.314(3) . ?
C8 N3 1.323(3) 4_567 ?
C8 H8 0.9400 . ?
C10 C6 1.343(4) 6_657 ?
C10 N7 1.355(4) . ?
C10 H10 0.9400 . ?
C11 N4 1.324(3) 8_765 ?
C11 N8 1.328(3) . ?
C11 H11 0.9400 . ?
C12 N8 1.356(4) . ?
C12 C5 1.367(4) 8_765 ?
C12 H12 0.9400 . ?
C4A C9B 1.339(9) 4_467 ?
C4A N3 1.422(8) 1_455 ?
C4A H4A 0.9400 . ?
C9B C4A 1.340(9) 4_567 ?
C9B N6 1.381(7) 1_455 ?
C9B H9B 0.9400 . ?
C9A C4B 1.359(8) 4_567 ?
C9A N6 1.404(6) 1_455 ?
C9A H9A 0.9400 . ?
C4B C9A 1.358(8) 4_467 ?
C4B N3 1.354(6) 1_455 ?
C4B H4B 0.9400 . ?
C1S O1S 1.081(8) . ?
C1S N1S 1.156(9) . ?
C1S H1S 0.9400 . ?
C2S N1S 1.339(9) . ?
C2S H2S1 0.9700 . ?
C2S H2S2 0.9700 . ?
C2S H2S3 0.9700 . ?
C3S N1S 1.323(9) . ?
C3S H3S1 0.9700 . ?
C3S H3S2 0.9700 . ?
C3S H3S3 0.9700 . ?
N1 Zn1 1.980(2) . ?
N2 Zn2 1.991(2) . ?
N3 C8 1.323(3) 4_467 ?
N3 C4B 1.354(6) 1_655 ?
N3 C4A 1.422(8) 1_655 ?
N3 Zn1 1.967(2) . ?
N4 C11 1.324(3) 8_755 ?
N4 Zn1 1.992(2) . ?
N5 Zn1 1.997(2) . ?
N6 C9B 1.381(7) 1_655 ?
N6 C9A 1.404(6) 1_655 ?
N6 Zn2 1.979(2) . ?
N7 C7 1.324(3) 6_657 ?
N7 Zn2 1.973(2) . ?
N8 Zn2 1.982(2) . ?

loop_
_geom_angle_atom_site_label_1
_geom_angle_atom_site_label_2
_geom_angle_atom_site_label_3
_geom_angle
_geom_angle_site_symmetry_1
_geom_angle_site_symmetry_3
_geom_angle_publ_flag
N1 C1 N2 113.8(2) . . ?
N1 C1 H1 123.1 . . ?
N2 C1 H1 123.1 . . ?
C3 C2 N1 108.8(3) . . ?
C3 C2 H2 125.6 . . ?
N1 C2 H2 125.6 . . ?
N2 C3 C2 108.0(3) . . ?
N2 C3 H3 126.0 . . ?
C2 C3 H3 126.0 . . ?
N4 C5 C12 108.4(3) . 8_755 ?
N4 C5 H5 125.8 . . ?
C12 C5 H5 125.8 8_755 . ?
C10 C6 N5 108.6(3) 6_557 . ?
C10 C6 H6 125.7 6_557 . ?
N5 C6 H6 125.7 . . ?
N7 C7 N5 114.1(2) 6_557 . ?
N7 C7 H7 122.9 6_557 . ?
N5 C7 H7 122.9 . . ?
N6 C8 N3 115.1(2) . 4_567 ?
N6 C8 H8 122.4 . . ?
N3 C8 H8 122.4 4_567 . ?
C6 C10 N7 109.1(3) 6_657 . ?
C6 C10 H10 125.4 6_657 . ?
N7 C10 H10 125.4 . . ?
N4 C11 N8 114.7(2) 8_765 . ?
N4 C11 H11 122.7 8_765 . ?
N8 C11 H11 122.7 . . ?
N8 C12 C5 108.8(3) . 8_765 ?
N8 C12 H12 125.6 . . ?
C5 C12 H12 125.6 8_765 . ?
C9B C4A N3 109.3(6) 4_467 1_455 ?
C9B C4A H4A 125.3 4_467 . ?
N3 C4A H4A 125.3 1_455 . ?
C4A C9B N6 107.5(6) 4_567 1_455 ?
C4A C9B H9B 126.3 4_567 . ?
N6 C9B H9B 126.3 1_455 . ?
C4B C9A N6 108.7(5) 4_567 1_455 ?
C4B C9A H9A 125.6 4_567 . ?
N6 C9A H9A 125.6 1_455 . ?
C9A C4B N3 107.9(5) 4_467 1_455 ?
C9A C4B H4B 126.1 4_467 . ?
N3 C4B H4B 126.1 1_455 . ?
O1S C1S N1S 160.3(14) . . ?
O1S C1S H1S 99.9 . . ?
N1S C1S H1S 99.9 . . ?
N1S C2S H2S1 109.5 . . ?
N1S C2S H2S2 109.5 . . ?
H2S1 C2S H2S2 109.5 . . ?
N1S C2S H2S3 109.5 . . ?
H2S1 C2S H2S3 109.5 . . ?
H2S2 C2S H2S3 109.5 . . ?
N1S C3S H3S1 109.5 . . ?
N1S C3S H3S2 109.5 . . ?
H3S1 C3S H3S2 109.5 . . ?
N1S C3S H3S3 109.5 . . ?
H3S1 C3S H3S3 109.5 . . ?
H3S2 C3S H3S3 109.5 . . ?
C1 N1 C2 104.5(2) . . ?
C1 N1 Zn1 123.96(19) . . ?
C2 N1 Zn1 131.5(2) . . ?
C1 N2 C3 104.9(2) . . ?
C1 N2 Zn2 123.42(19) . . ?
C3 N2 Zn2 131.60(19) . . ?
C8 N3 C4B 104.8(3) 4_467 1_655 ?
C8 N3 C4A 101.3(3) 4_467 1_655 ?
C4B N3 C4A 26.5(3) 1_655 1_655 ?
C8 N3 Zn1 126.58(19) 4_467 . ?
C4B N3 Zn1 127.1(3) 1_655 . ?
C4A N3 Zn1 130.4(3) 1_655 . ?
C11 N4 C5 104.2(2) 8_755 . ?
C11 N4 Zn1 127.25(19) 8_755 . ?
C5 N4 Zn1 127.3(2) . . ?
C7 N5 C6 103.9(2) . . ?
C7 N5 Zn1 123.29(19) . . ?
C6 N5 Zn1 132.65(19) . . ?
C8 N6 C9B 104.5(3) . 1_655 ?
C8 N6 C9A 102.1(3) . 1_655 ?
C9B N6 C9A 26.3(3) 1_655 1_655 ?
C8 N6 Zn2 128.22(18) . . ?
C9B N6 Zn2 125.4(3) 1_655 . ?
C9A N6 Zn2 128.4(3) 1_655 . ?
C7 N7 C10 104.2(2) 6_657 . ?
C7 N7 Zn2 125.48(19) 6_657 . ?
C10 N7 Zn2 130.2(2) . . ?
C11 N8 C12 103.8(2) . . ?
C11 N8 Zn2 124.94(18) . . ?
C12 N8 Zn2 130.2(2) . . ?
C1S N1S C3S 123.0(12) . . ?
C1S N1S C2S 115.2(11) . . ?
C3S N1S C2S 121.3(11) . . ?
N3 Zn1 N1 113.49(10) . . ?
N3 Zn1 N4 110.59(10) . . ?
N1 Zn1 N4 109.35(9) . . ?
N3 Zn1 N5 110.93(9) . . ?
N1 Zn1 N5 107.96(10) . . ?
N4 Zn1 N5 104.07(9) . . ?
N7 Zn2 N6 110.20(10) . . ?
N7 Zn2 N8 111.10(9) . . ?
N6 Zn2 N8 108.90(10) . . ?
N7 Zn2 N2 113.34(10) . . ?
N6 Zn2 N2 107.77(9) . . ?
N8 Zn2 N2 105.31(9) . . ?

loop_
_geom_torsion_atom_site_label_1
_geom_torsion_atom_site_label_2
_geom_torsion_atom_site_label_3
_geom_torsion_atom_site_label_4
_geom_torsion
_geom_torsion_site_symmetry_1
_geom_torsion_site_symmetry_2
_geom_torsion_site_symmetry_3
_geom_torsion_site_symmetry_4
_geom_torsion_publ_flag
N1 C2 C3 N2 -0.1(4) . . . . ?
N2 C1 N1 C2 1.3(3) . . . . ?
N2 C1 N1 Zn1 179.19(19) . . . . ?
C3 C2 N1 C1 -0.7(4) . . . . ?
C3 C2 N1 Zn1 -178.4(2) . . . . ?
N1 C1 N2 C3 -1.4(3) . . . . ?
N1 C1 N2 Zn2 -178.27(18) . . . . ?
C2 C3 N2 C1 0.8(4) . . . . ?
C2 C3 N2 Zn2 177.4(2) . . . . ?
C12 C5 N4 C11 -0.5(4) 8_755 . . 8_755 ?
C12 C5 N4 Zn1 -168.5(3) 8_755 . . . ?
N7 C7 N5 C6 0.8(3) 6_557 . . . ?
N7 C7 N5 Zn1 -175.21(18) 6_557 . . . ?
C10 C6 N5 C7 -0.6(4) 6_557 . . . ?
C10 C6 N5 Zn1 174.9(2) 6_557 . . . ?
N3 C8 N6 C9B 15.7(5) 4_567 . . 1_655 ?
N3 C8 N6 C9A -11.2(5) 4_567 . . 1_655 ?
N3 C8 N6 Zn2 -179.22(19) 4_567 . . . ?
C6 C10 N7 C7 -0.3(4) 6_657 . . 6_657 ?
C6 C10 N7 Zn2 175.1(3) 6_657 . . . ?
N4 C11 N8 C12 0.5(4) 8_765 . . . ?
N4 C11 N8 Zn2 -168.73(19) 8_765 . . . ?
C5 C12 N8 C11 -0.2(4) 8_765 . . . ?
C5 C12 N8 Zn2 168.3(3) 8_765 . . . ?
O1S C1S N1S C3S -38(4) . . . . ?
O1S C1S N1S C2S 150(4) . . . . ?
C8 N3 Zn1 N1 138.8(2) 4_467 . . . ?
C4B N3 Zn1 N1 -57.5(5) 1_655 . . . ?
C4A N3 Zn1 N1 -23.6(6) 1_655 . . . ?
C8 N3 Zn1 N4 -97.9(2) 4_467 . . . ?
C4B N3 Zn1 N4 65.8(5) 1_655 . . . ?
C4A N3 Zn1 N4 99.7(6) 1_655 . . . ?
C8 N3 Zn1 N5 17.1(3) 4_467 . . . ?
C4B N3 Zn1 N5 -179.2(5) 1_655 . . . ?
C4A N3 Zn1 N5 -145.4(5) 1_655 . . . ?
C1 N1 Zn1 N3 -118.9(2) . . . . ?
C2 N1 Zn1 N3 58.3(3) . . . . ?
C1 N1 Zn1 N4 117.1(2) . . . . ?
C2 N1 Zn1 N4 -65.7(3) . . . . ?
C1 N1 Zn1 N5 4.5(2) . . . . ?
C2 N1 Zn1 N5 -178.3(3) . . . . ?
C11 N4 Zn1 N3 33.8(3) 8_755 . . . ?
C5 N4 Zn1 N3 -160.9(3) . . . . ?
C11 N4 Zn1 N1 159.4(2) 8_755 . . . ?
C5 N4 Zn1 N1 -35.2(3) . . . . ?
C11 N4 Zn1 N5 -85.4(3) 8_755 . . . ?
C5 N4 Zn1 N5 80.0(3) . . . . ?
C7 N5 Zn1 N3 -138.1(2) . . . . ?
C6 N5 Zn1 N3 47.1(3) . . . . ?
C7 N5 Zn1 N1 97.0(2) . . . . ?
C6 N5 Zn1 N1 -77.8(3) . . . . ?
C7 N5 Zn1 N4 -19.2(2) . . . . ?
C6 N5 Zn1 N4 166.0(3) . . . . ?
C7 N7 Zn2 N6 82.2(2) 6_657 . . . ?
C10 N7 Zn2 N6 -92.4(3) . . . . ?
C7 N7 Zn2 N8 -157.0(2) 6_657 . . . ?
C10 N7 Zn2 N8 28.4(3) . . . . ?
C7 N7 Zn2 N2 -38.7(3) 6_657 . . . ?
C10 N7 Zn2 N2 146.8(3) . . . . ?
C8 N6 Zn2 N7 -141.7(2) . . . . ?
C9B N6 Zn2 N7 20.4(5) 1_655 . . . ?
C9A N6 Zn2 N7 53.3(5) 1_655 . . . ?
C8 N6 Zn2 N8 96.2(3) . . . . ?
C9B N6 Zn2 N8 -101.7(5) 1_655 . . . ?
C9A N6 Zn2 N8 -68.8(5) 1_655 . . . ?
C8 N6 Zn2 N2 -17.5(3) . . . . ?
C9B N6 Zn2 N2 144.6(5) 1_655 . . . ?
C9A N6 Zn2 N2 177.5(5) 1_655 . . . ?
C11 N8 Zn2 N7 -151.1(2) . . . . ?
C12 N8 Zn2 N7 42.6(3) . . . . ?
C11 N8 Zn2 N6 -29.5(2) . . . . ?
C12 N8 Zn2 N6 164.2(3) . . . . ?
C11 N8 Zn2 N2 85.8(2) . . . . ?
C12 N8 Zn2 N2 -80.5(3) . . . . ?
C1 N2 Zn2 N7 -110.1(2) . . . . ?
C3 N2 Zn2 N7 73.9(3) . . . . ?
C1 N2 Zn2 N6 127.7(2) . . . . ?
C3 N2 Zn2 N6 -48.3(3) . . . . ?
C1 N2 Zn2 N8 11.5(2) . . . . ?
C3 N2 Zn2 N8 -164.5(3) . . . . ?

_diffrn_measured_fraction_theta_max 0.992
_diffrn_reflns_theta_full        29.63
_diffrn_measured_fraction_theta_full 0.992
_refine_diff_density_max         0.575
_refine_diff_density_min         -0.483
_refine_diff_density_rms         0.071
